50
5469 1242 2801 4308 169 4982 9521 4286 8341 9601 205 131 4361 9600 4545 7977 6716 452 4659 6438 1598 1323 6675 3004 6907 2773 761 3746 7873 3490 5460 7740 2771 8669 411 4502 2417 1709 8999 1661 7802 4711 9453 8858 164 9516 5590 7268 1055 7188 
7469 4242 4801 7308 2169 6982 11521 6286 10341 11601 2205 2131 6361 12600 6545 9977 8716 2452 6659 9438 3598 3323 8675 5004 8907 4773 2761 5746 9873 5490 8460 10740 4771 10669 2411 6502 4417 3709 10999 3661 9802 6711 11453 10858 2164 12516 7590 9268 3055 10188 
118758
